c cksystemsgroup.github.io/unicorn
c CNF contains a total of 52 clauses.
c CNF contains a total of 34 variables.
c CNF clauses cover 1 bad states.
c Variable name mapping (17 names):
c   1: input[bit=0]
c   2: input[bit=0]
c   5: input[bit=1]
c   6: input[bit=1]
c   9: input[bit=2]
c   10: input[bit=2]
c   13: input[bit=3]
c   14: input[bit=3]
c   18: input[bit=4]
c   19: input[bit=4]
c   22: input[bit=5]
c   23: input[bit=5]
c   26: input[bit=6]
c   27: input[bit=6]
c   30: input[bit=7]
c   31: input[bit=7]
c   34: ?
p cnf 34 52
-1 -2 3 0
1 -3 0
2 -3 0
-3 -4 0
3 4 0
-5 -6 7 0
5 -7 0
6 -7 0
-4 -7 8 0
4 -8 0
7 -8 0
-9 -10 11 0
9 -11 0
10 -11 0
-8 -11 12 0
8 -12 0
11 -12 0
-13 -14 15 0
13 -15 0
14 -15 0
-15 -16 0
15 16 0
-12 -16 17 0
12 -17 0
16 -17 0
-18 -19 20 0
18 -20 0
19 -20 0
-17 -20 21 0
17 -21 0
20 -21 0
-22 -23 24 0
22 -24 0
23 -24 0
-21 -24 25 0
21 -25 0
24 -25 0
-26 -27 28 0
26 -28 0
27 -28 0
-25 -28 29 0
25 -29 0
28 -29 0
-30 -31 32 0
30 -32 0
31 -32 0
-32 -33 0
32 33 0
-29 -33 34 0
29 -34 0
33 -34 0
34 0
